
List of user-set options:

                                    Name   Value                used
                           compl_inf_tol = 1                     yes
                         constr_viol_tol = 1                     yes
                            dual_inf_tol = 1000                  yes
                           linear_solver = ma97                  yes
                              ma86_small = 1e-30                  no
                                  ma86_u = 0.0001                 no
                              ma97_order = best                  yes
                              ma97_small = 1e-30                 yes
                            ma97_switch1 = at_start              yes
                            ma97_switch2 = od_hd_reuse           yes
                                  ma97_u = 1e-06                 yes
                               ma97_umax = 0.5                   yes
                                max_iter = 2000                  yes
                    max_refinement_steps = 20                    yes
                    min_refinement_steps = 5                     yes
                                 mu_init = 1e-06                 yes
           mu_superlinear_decrease_power = 1.25                  yes
                   nlp_scaling_min_value = 1e-08                 yes
                        option_file_name = Preset_Case:_282_NCP.opt  yes
                             output_file = ./tmp/Preset_Case:_282_NCP.output  yes
                      print_user_options = yes                   yes
        required_infeasibility_reduction = 1                      no
                                     tol = 1e-08                 yes
                   warm_start_bound_frac = 1e-20                 yes
                   warm_start_bound_push = 1e-20                 yes
                   warm_start_init_point = yes                   yes
              warm_start_mult_bound_push = 1e-20                 yes
                warm_start_mult_init_max = 1e+40                 yes
             warm_start_slack_bound_frac = 1e-20                 yes
             warm_start_slack_bound_push = 1e-20                 yes

******************************************************************************
This program contains Ipopt, a library for large-scale nonlinear optimization.
 Ipopt is released as open source code under the Eclipse Public License (EPL).
         For more information visit http://projects.coin-or.org/Ipopt
******************************************************************************

This is Ipopt version 3.12.10, running with linear solver ma97.

Number of nonzeros in equality constraint Jacobian...:   117140
Number of nonzeros in inequality constraint Jacobian.:      213
Number of nonzeros in Lagrangian Hessian.............:    47462

Total number of variables............................:    29971
                     variables with only lower bounds:    11312
                variables with lower and upper bounds:    15132
                     variables with only upper bounds:        0
Total number of equality constraints.................:    29864
Total number of inequality constraints...............:       25
        inequality constraints with only lower bounds:        4
   inequality constraints with lower and upper bounds:        0
        inequality constraints with only upper bounds:       21

iter    objective    inf_pr   inf_du lg(mu)  ||d||  lg(rg) alpha_du alpha_pr  ls
   0 -4.0804277e-02 7.57e-02 3.67e+01  -6.0 0.00e+00    -  0.00e+00 0.00e+00   0
In iteration 0, 4 Slacks too small, adjusting variable bounds
   1 -4.0804277e-02 7.57e-02 2.38e+02  -6.0 1.50e+04   0.0 4.09e-08 8.28e-14f  1
   2 -4.0804289e-02 7.57e-02 3.02e+02  -6.0 8.93e+02  -0.5 1.37e-06 7.13e-07f  1
   3 -4.0804364e-02 7.57e-02 1.94e+03  -6.0 8.92e+02  -1.0 1.54e-05 4.11e-06f  1
   4 -4.0805441e-02 7.56e-02 5.57e+02  -6.0 8.93e+02  -1.4 7.83e-06 5.93e-05f  1
   5 -4.0816025e-02 7.56e-02 9.40e+03  -6.0 8.93e+02  -1.9 9.15e-06 5.56e-04f  1
   6 -4.0871926e-02 7.54e-02 2.55e+04  -6.0 8.90e+02  -2.4 4.80e-05 3.11e-03f  1
   7 -4.0875116e-02 7.54e-02 1.57e+04  -6.0 8.73e+02  -2.0 9.35e-04 2.10e-04f  1
   8 -4.0882334e-02 7.53e-02 1.26e+04  -6.0 8.72e+02  -2.4 1.18e-03 4.68e-04f  1
   9 -4.0919045e-02 7.51e-02 9.95e+03  -6.0 8.70e+02  -2.0 2.80e-03 2.40e-03f  1
iter    objective    inf_pr   inf_du lg(mu)  ||d||  lg(rg) alpha_du alpha_pr  ls
  10 -4.0959878e-02 7.50e-02 1.05e+04  -6.0 8.54e+02  -2.5 7.09e-03 2.32e-03f  1
  11 -4.1139277e-02 7.41e-02 6.85e+04  -6.0 8.39e+02  -2.1 1.17e-02 1.14e-02f  1
  12 -4.1132508e-02 7.41e-02 6.84e+04  -6.0 1.64e+03  -2.5 8.06e-08 2.38e-04f  2
  13 -4.1149566e-02 7.39e-02 7.80e+04  -6.0 7.43e+02  -2.1 1.47e-02 3.06e-03h  1
  14 -4.1169366e-02 7.37e-02 3.30e+05  -6.0 7.35e+02  -1.7 1.66e-02 1.77e-03h  1
  15 -4.1172626e-02 7.37e-02 7.80e+05  -6.0 7.04e+02  -2.2 1.22e-01 4.29e-04h  2
  16 -4.1192408e-02 7.36e-02 9.32e+05  -6.0 7.19e+02  -1.7 1.34e-02 1.95e-03h  1
  17 -4.1186337e-02 7.35e-02 9.32e+05  -6.0 6.99e+02  -2.2 5.32e-04 2.23e-04h  3
  18 -4.1185741e-02 7.35e-02 9.39e+05  -6.0 7.18e+02  -1.8 8.97e-04 2.40e-04h  2
  19r-4.1185741e-02 7.35e-02 1.00e+03  -1.1 0.00e+00  -2.3 0.00e+00 4.81e-07R 13
iter    objective    inf_pr   inf_du lg(mu)  ||d||  lg(rg) alpha_du alpha_pr  ls
  20r-2.7449500e-02 7.35e-02 1.02e+03  -1.1 5.47e+03    -  5.46e-09 2.51e-06f  1
  21r-2.6882109e-02 7.33e-02 1.02e+03  -1.1 2.75e+03    -  3.66e-05 7.50e-06f  1
  22r-2.5312353e-02 7.28e-02 1.02e+03  -1.1 1.56e+03    -  3.29e-05 2.76e-05f  1
  23r-2.5312353e-02 7.28e-02 9.99e+02  -1.1 0.00e+00    -  0.00e+00 3.97e-07R  4
  24r-2.5312229e-02 7.28e-02 1.09e+03  -1.1 1.63e+03    -  4.09e-05 5.39e-07f  1
  25r-2.5395051e-02 7.29e-02 9.99e+02  -1.1 1.86e+03    -  4.40e-06 8.02e-05f  1
  26r-2.5313675e-02 7.23e-02 9.99e+02  -1.1 9.54e+02    -  1.94e-04 1.48e-04f  1
  27 -2.5318620e-02 7.23e-02 8.65e+06  -6.0 1.23e+02    -  9.73e-02 3.36e-04h  1
  28 -2.5542394e-02 7.10e-02 4.65e+08  -6.0 1.37e+02    -  3.37e-04 1.80e-02f  1
  29r-2.5542394e-02 7.10e-02 1.00e+03  -1.1 0.00e+00    -  0.00e+00 2.88e-07R  6
iter    objective    inf_pr   inf_du lg(mu)  ||d||  lg(rg) alpha_du alpha_pr  ls
  30r-2.5537976e-02 7.10e-02 4.00e+03  -1.1 8.56e+02    -  3.61e-04 5.86e-06f  1
  31 -2.5539824e-02 7.10e-02 7.68e+06  -6.0 1.38e+02    -  1.07e-01 1.45e-04h  1
  32 -2.5544496e-02 7.10e-02 2.02e+07  -6.0 3.86e+02    -  1.46e-04 3.85e-04h  1
  33 -2.5557259e-02 7.09e-02 2.02e+07  -6.0 7.73e+02    -  1.17e-02 7.05e-04h  1
  34 -2.5977340e-02 1.82e-01 1.98e+07  -6.0 7.64e+02    -  1.30e-03 2.36e-02f  1
  35 -2.6540542e-02 2.78e-01 1.88e+07  -6.0 6.23e+02    -  1.38e-02 4.63e-02h  1
  36 -2.7257313e-02 4.38e-01 1.73e+07  -6.0 4.46e+02    -  8.67e-02 8.00e-02h  1
  37 -2.9240385e-02 1.57e+00 1.32e+07  -6.0 2.84e+02    -  2.31e-01 2.40e-01f  1
  38 -3.0594295e-02 1.34e+00 1.09e+07  -6.0 1.11e+02    -  1.74e-01 1.70e-01h  1
  39 -3.1529056e-02 1.17e+00 9.49e+06  -6.0 7.69e+01    -  4.61e-03 1.32e-01h  1
iter    objective    inf_pr   inf_du lg(mu)  ||d||  lg(rg) alpha_du alpha_pr  ls
  40 -3.2372931e-02 1.02e+00 7.78e+06  -6.0 5.67e+01    -  2.69e-01 1.80e-01h  1
  41 -3.3166456e-02 9.80e-01 6.51e+06  -6.0 1.47e+02    -  2.30e-07 1.63e-01h  1
  42 -3.3285304e-02 9.61e-01 6.38e+06  -6.0 2.27e+01  -2.7 3.41e-01 2.01e-02h  1
  43 -3.5958925e-02 7.96e-01 3.36e+06  -6.0 4.26e+01  -3.2 4.27e-01 4.73e-01h  1
  44 -3.6018374e-02 7.49e-01 3.16e+06  -6.0 2.48e+02  -3.7 2.04e-04 5.91e-02h  4
  45 -3.6064172e-02 7.33e-01 3.09e+06  -6.0 1.78e+01  -3.3 5.26e-01 2.20e-02h  1
  46 -3.6236738e-02 6.85e-01 2.86e+06  -6.0 1.55e+01  -2.8 7.03e-01 7.38e-02h  4
  47 -3.6243021e-02 6.82e-01 2.85e+06  -6.0 2.12e+01  -3.3 4.27e-01 4.28e-03h  8
  48 -3.6250303e-02 6.79e-01 2.84e+06  -6.0 3.49e+01  -2.9 6.79e-01 4.31e-03h  7
  49 -3.6251794e-02 6.78e-01 2.84e+06  -6.0 4.21e+01  -3.4 5.68e-01 1.08e-03h 10
iter    objective    inf_pr   inf_du lg(mu)  ||d||  lg(rg) alpha_du alpha_pr  ls
  50 -3.6252740e-02 6.78e-01 2.84e+06  -6.0 1.38e+01  -2.9 8.53e-01 4.42e-04h 11
  51 -3.6384080e-02 6.44e-01 2.68e+06  -6.0 1.29e+01  -2.5 9.33e-01 5.50e-02h  1
  52 -3.7746432e-02 5.60e-01 1.00e+06  -6.0 1.45e+01  -3.0 2.79e-02 6.26e-01h  1
  53 -3.8189506e-02 6.09e-01 3.11e+05  -6.0 5.03e+00  -3.5 3.31e-04 6.90e-01h  1
  54 -3.8324024e-02 2.66e-01 1.37e+05  -6.0 2.75e+00  -4.0 6.35e-01 5.61e-01h  1
  55 -3.8562362e-02 1.14e-02 4.19e+03  -6.0 1.63e+00  -4.4 2.16e-02 1.00e+00h  1
  56 -3.9169370e-02 6.13e-02 5.80e+01  -6.0 1.81e+00  -4.9 6.46e-01 1.00e+00h  1
  57 -4.0281294e-02 1.76e-01 2.55e+01  -6.0 8.93e+00  -5.4 6.05e-01 5.20e-01h  1
  58 -4.1927543e-02 3.95e-01 1.79e+01  -6.0 2.44e+01  -5.9 2.93e-01 2.55e-01h  2
  59 -4.3527748e-02 3.25e-01 1.39e+01  -6.0 8.20e+00  -5.4 6.96e-01 6.56e-01h  1
iter    objective    inf_pr   inf_du lg(mu)  ||d||  lg(rg) alpha_du alpha_pr  ls
  60 -4.4598999e-02 4.87e-02 2.23e+01  -6.0 2.48e+00  -5.0 6.72e-01 1.00e+00h  1
  61 -4.7087454e-02 4.31e-01 2.99e+01  -6.0 7.68e+00  -5.5 4.77e-01 9.69e-01h  1
  62 -5.3939967e-02 2.83e+00 1.62e+03  -6.0 2.13e+01  -6.0 6.03e-03 7.74e-01f  1
  63 -5.4785468e-02 2.15e+00 1.18e+03  -6.0 1.96e+01  -5.5 6.74e-01 2.74e-01h  1
  64 -5.9246534e-02 3.03e+00 8.29e+02  -6.0 3.79e+01  -6.0 1.61e-01 2.97e-01h  1
  65 -6.0813396e-02 2.97e+00 7.00e+03  -6.0 8.76e+01  -6.5 2.14e-01 7.70e-02h  1
  66 -6.3806567e-02 2.70e+00 7.04e+03  -6.0 4.85e+01  -6.1 4.23e-02 1.92e-01f  1
  67 -6.4053504e-02 2.63e+00 6.17e+03  -6.0 1.23e+02  -6.5 3.95e-02 2.32e-02h  1
  68 -6.4107889e-02 2.59e+00 6.10e+03  -6.0 2.18e+01  -5.2 1.79e-02 1.81e-02f  1
  69 -6.4203225e-02 2.48e+00 2.70e+03  -6.0 1.36e+01  -5.7 8.27e-02 3.96e-02h  1
iter    objective    inf_pr   inf_du lg(mu)  ||d||  lg(rg) alpha_du alpha_pr  ls
  70 -6.4460449e-02 2.29e+00 2.55e+03  -6.0 3.30e+01  -6.2 3.76e-01 7.97e-02h  1
  71 -6.5941588e-02 1.95e+00 2.00e+03  -6.0 8.75e+01  -6.6 1.47e-01 2.28e-01h  1
  72 -6.8409296e-02 1.25e+00 1.64e+03  -6.0 2.41e+02  -7.1 5.59e-02 1.82e-01h  1
  73 -6.9213335e-02 1.19e+00 1.57e+03  -6.0 4.40e+02  -7.6 1.60e-01 3.15e-02h  1
  74 -7.0646719e-02 1.55e+00 1.53e+03  -6.0 1.03e+03  -8.1 3.64e-02 2.72e-02h  1
  75 -7.1641169e-02 1.72e+00 1.50e+03  -6.0 1.77e+03  -8.6 7.98e-03 2.05e-02h  1
  76 -7.1916435e-02 1.70e+00 1.48e+03  -6.0 5.46e+02  -8.1 6.04e-02 1.39e-02h  1
  77 -7.4075486e-02 3.56e+00 1.39e+03  -6.0 1.61e+03  -8.6 2.65e-02 6.10e-02h  1
  78 -7.8310340e-02 9.81e+00 1.15e+03  -6.0 6.77e+02  -8.2 4.08e-02 1.80e-01h  1
  79 -7.8536622e-02 9.51e+00 1.11e+03  -6.0 6.60e+02  -6.9 1.78e-02 3.15e-02h  1
iter    objective    inf_pr   inf_du lg(mu)  ||d||  lg(rg) alpha_du alpha_pr  ls
  80 -7.8692905e-02 9.40e+00 1.09e+03  -6.0 3.72e+02  -7.3 9.10e-02 1.15e-02h  1
  81 -8.0488017e-02 9.10e+00 1.72e+03  -6.0 1.66e+03  -7.8 7.27e-02 3.41e-02h  1
  82 -8.3328136e-02 9.17e+00 1.97e+03  -6.0 2.67e+04  -8.3 5.42e-03 3.85e-03h  1
  83 -8.8912350e-02 8.35e+00 3.63e+03  -6.0 8.53e+02  -7.9 4.78e-01 2.41e-01h  1
  84 -9.3378772e-02 1.11e+01 3.32e+03  -6.0 1.85e+03  -8.3 8.67e-02 8.39e-02h  1
  85 -9.4842483e-02 1.12e+01 1.76e+03  -6.0 6.74e+02  -7.9 2.51e-01 8.57e-02h  1
  86 -9.8098757e-02 1.01e+01 6.76e+02  -6.0 9.43e+02  -8.4 1.55e-01 1.30e-01h  1
  87 -9.8878285e-02 9.97e+00 6.67e+02  -6.0 2.90e+03  -8.9 1.13e-02 1.17e-02h  1
  88 -1.0082232e-01 8.77e+00 5.82e+02  -6.0 8.02e+02  -8.4 1.47e-01 1.30e-01h  1
  89 -1.0376768e-01 7.71e+00 4.88e+02  -6.0 1.53e+03  -8.9 1.84e-01 1.26e-01h  1
iter    objective    inf_pr   inf_du lg(mu)  ||d||  lg(rg) alpha_du alpha_pr  ls
  90 -1.0390272e-01 7.63e+00 7.63e+02  -6.0 1.22e+03  -8.5 3.32e-01 9.79e-03h  1
  91 -1.0516615e-01 7.25e+00 5.22e+02  -6.0 1.42e+03  -9.0 3.54e-01 5.15e-02h  1
  92 -1.0582121e-01 6.55e+00 4.55e+02  -6.0 1.35e+03  -7.6 1.10e-01 9.54e-02h  1
  93 -1.1050561e-01 4.22e+00 5.59e+02  -6.0 5.86e+02  -8.1 5.27e-03 8.02e-01h  1
  94 -1.1206698e-01 2.64e+00 1.76e+03  -6.0 7.32e+02  -8.6 9.59e-02 3.84e-01h  1
  95 -1.1339664e-01 2.32e+00 1.17e+03  -6.0 1.50e+03  -9.1 2.69e-01 1.34e-01h  1
  96 -1.1549374e-01 2.06e+00 5.27e+02  -6.0 5.09e+02  -8.6 3.17e-01 4.99e-01h  1
  97 -1.1686675e-01 6.59e+00 3.34e+02  -6.0 1.40e+03  -9.1 3.40e-01 3.93e-01h  1
  98 -1.1708238e-01 6.07e+00 3.07e+02  -6.0 7.69e+02  -8.7 5.95e-02 8.43e-02h  1
  99 -1.1752623e-01 5.42e+00 2.74e+02  -6.0 7.39e+02  -9.2 2.07e-02 1.15e-01h  1
iter    objective    inf_pr   inf_du lg(mu)  ||d||  lg(rg) alpha_du alpha_pr  ls
 100 -1.1758707e-01 5.28e+00 8.90e+02  -6.0 5.04e+02  -8.7 5.24e-01 2.69e-02h  1
Error in an AMPL evaluation. Run with "halt_on_ampl_error yes" to see details.
Warning: Cutting back alpha due to evaluation error
 101 -1.1810688e-01 4.51e+00 2.39e+03  -6.0 8.06e+02  -9.2 9.97e-01 1.45e-01h  2
 102 -1.1858213e-01 3.23e+00 1.73e+03  -6.0 3.33e+02  -8.8 3.75e-01 2.84e-01h  1
 103 -1.1860599e-01 3.21e+00 2.33e+03  -6.0 8.86e+02  -9.3 2.04e-01 7.22e-03h  1
Error in an AMPL evaluation. Run with "halt_on_ampl_error yes" to see details.
Warning: Cutting back alpha due to evaluation error
 104 -1.1859910e-01 3.20e+00 2.24e+03  -6.0 3.96e+03  -8.8 3.25e-02 1.78e-03h  2
 105 -1.1856699e-01 3.20e+00 2.20e+03  -6.0 6.44e+03  -9.3 5.16e-03 1.80e-03h  3
 106 -1.1850541e-01 3.19e+00 2.12e+03  -6.0 6.00e+03  -8.9 7.96e-03 2.76e-03h  2
 107 -1.1845817e-01 3.18e+00 2.00e+03  -6.0 6.95e+03  -9.4 9.23e-03 1.84e-03h  2
 108 -1.1837601e-01 3.17e+00 1.94e+03  -6.0 7.35e+03  -8.9 7.62e-03 3.11e-03h  1
 109 -1.1835310e-01 3.17e+00 2.33e+03  -6.0 1.94e+05  -7.6 2.66e-05 1.64e-04h  1
iter    objective    inf_pr   inf_du lg(mu)  ||d||  lg(rg) alpha_du alpha_pr  ls
 110 -1.1834801e-01 3.17e+00 2.82e+03  -6.0 4.93e+03  -6.3 4.97e-04 8.46e-05f  1
 111 -1.1839141e-01 3.05e+00 2.36e+03  -6.0 5.32e+02  -6.8 7.46e-03 3.81e-02h  1
 112 -1.1828545e-01 2.60e+00 4.98e+03  -6.0 4.15e+02  -7.2 5.10e-02 1.49e-01h  1
 113 -1.1828926e-01 2.49e+00 4.79e+03  -6.0 2.54e+03  -5.9 3.85e-02 4.26e-02f  1
 114 -1.1828401e-01 2.46e+00 4.74e+03  -6.0 3.61e+01  -3.7 3.47e-03 1.11e-02h  1
 115 -1.1827821e-01 2.43e+00 4.69e+03  -6.0 3.49e+01  -4.2 3.57e-02 1.15e-02h  1
 116 -1.1809208e-01 1.19e+00 2.25e+03  -6.0 5.49e+00  -4.6 3.94e-02 5.11e-01h  1
 117 -1.1803077e-01 3.96e-04 1.09e+02  -6.0 8.07e-01  -5.1 9.85e-02 1.00e+00h  1
 118 -1.1804277e-01 5.69e-05 6.44e+00  -6.0 1.18e-01  -3.8 9.37e-01 1.00e+00h  1
 119 -1.1809214e-01 1.73e-03 9.13e+00  -6.0 4.54e-01  -4.3 3.70e-01 1.00e+00h  1
iter    objective    inf_pr   inf_du lg(mu)  ||d||  lg(rg) alpha_du alpha_pr  ls
 120 -1.1820339e-01 5.23e-03 4.65e+01  -6.0 8.84e-01  -4.7 7.25e-01 1.00e+00h  1
 121 -1.1825935e-01 3.36e-03 6.40e+00  -6.0 5.37e-01  -5.2 9.81e-01 1.00e+00h  1
 122 -1.1830427e-01 9.85e-04 4.11e+00  -6.0 8.86e-01  -5.7 5.97e-01 1.00e+00h  1
 123 -1.1839277e-01 1.05e-02 1.00e+00  -6.0 3.17e+00  -6.2 1.00e+00 1.00e+00h  1
 124 -1.1846884e-01 8.04e-03 6.02e+00  -6.0 5.10e+00  -6.6 4.95e-01 3.64e-01h  1
 125 -1.1853231e-01 6.34e-03 5.92e+01  -6.0 1.54e+01  -7.1 4.38e-01 2.08e-01f  1
 126 -1.1885867e-01 2.93e-01 1.18e+01  -6.0 4.79e+01  -7.6 1.00e+00 1.00e+00f  1
 127 -1.1941598e-01 4.88e-01 2.40e+02  -6.0 1.45e+02  -8.1 3.12e-01 6.75e-01h  1
 128 -1.1984468e-01 7.10e-01 1.75e+02  -6.0 3.49e+02  -8.6 2.55e-01 2.53e-01h  1
 129 -1.2003702e-01 6.73e-01 1.20e+02  -6.0 8.46e+02  -9.0 1.65e-01 5.93e-02h  1
iter    objective    inf_pr   inf_du lg(mu)  ||d||  lg(rg) alpha_du alpha_pr  ls
 130 -1.2186205e-01 2.07e+01 1.05e+02  -6.0 6.77e+03  -9.5 1.38e-01 1.46e-01h  1
 131 -1.2194474e-01 2.03e+01 1.06e+02  -6.0 4.64e+03  -9.1 1.22e-02 1.92e-02h  1
 132 -1.2247116e-01 1.52e+01 1.61e+02  -6.0 3.51e+02  -8.7 4.35e-02 2.65e-01h  1
 133 -1.2260200e-01 1.48e+01 1.56e+02  -6.0 1.38e+03  -9.1 3.19e-02 2.67e-02h  1
 134 -1.2361408e-01 8.19e+00 1.19e+02  -6.0 3.90e+02  -8.7 3.59e-01 4.78e-01h  1
 135 -1.2464769e-01 7.82e+00 9.49e+01  -6.0 1.13e+03  -9.2 2.09e-01 2.24e-01h  1
 136 -1.2492244e-01 7.03e+00 7.74e+01  -6.0 1.06e+03  -8.8 1.66e-01 1.06e-01h  1
 137 -1.2677894e-01 1.03e+01 8.90e+01  -6.0 1.25e+03  -9.2 3.11e-03 5.05e-01h  1
 138 -1.2677177e-01 9.41e+00 6.60e+01  -6.0 6.65e+02  -8.8 2.45e-01 9.80e-02h  1
 139 -1.2699136e-01 8.70e+00 6.60e+01  -6.0 1.44e+03  -9.3 7.90e-03 1.00e-01h  1
iter    objective    inf_pr   inf_du lg(mu)  ||d||  lg(rg) alpha_du alpha_pr  ls
 140 -1.2786606e-01 4.06e+00 4.99e+01  -6.0 4.05e+02  -8.9 2.74e-01 7.06e-01h  1
 141 -1.2852238e-01 5.74e+00 2.17e+01  -6.0 1.25e+03  -9.3 5.68e-01 3.17e-01h  1
 142 -1.2881629e-01 5.81e+00 9.42e+01  -6.0 3.70e+03  -9.8 5.03e-01 7.94e-02h  1
 143 -1.2931298e-01 3.21e+00 8.32e+01  -6.0 9.26e+02  -9.4 1.00e+00 4.49e-01h  1
 144 -1.3008809e-01 1.26e+01 1.28e+02  -6.0 2.70e+03  -9.9 4.07e-01 2.77e-01h  1
 145 -1.3153621e-01 1.80e+01 2.98e+01  -6.0 9.61e+02  -9.4 1.00e+00 9.89e-01h  1
 146 -1.3169660e-01 1.08e+01 9.36e+02  -6.0 1.34e+03  -9.0 2.91e-02 4.74e-01h  1
 147 -1.3203362e-01 1.02e+01 4.43e+03  -6.0 4.22e+03  -9.5 1.95e-02 7.57e-02h  1
 148 -1.3233373e-01 5.07e+00 2.52e+03  -6.0 6.21e+02  -9.1 1.36e-01 5.38e-01h  1
 149 -1.3254202e-01 4.34e+00 2.14e+03  -6.0 2.18e+03  -9.5 1.49e-02 1.48e-01h  1
iter    objective    inf_pr   inf_du lg(mu)  ||d||  lg(rg) alpha_du alpha_pr  ls
 150 -1.3255054e-01 4.27e+00 2.11e+03  -6.0 8.19e+02  -7.3 2.90e-02 1.60e-02h  1
 151 -1.3255258e-01 4.15e+00 2.05e+03  -6.0 3.00e+01  -6.9 1.14e-01 2.69e-02h  1
 152 -1.3252889e-01 3.59e+00 1.77e+03  -6.0 3.91e+01  -6.5 8.97e-02 1.34e-01h  1
 153 -1.3248183e-01 2.83e+00 1.92e+03  -6.0 1.41e+01  -6.9 2.58e-01 2.13e-01h  1
 154 -1.3257603e-01 4.07e-01 7.69e+02  -6.0 3.79e+01  -7.4 6.45e-01 9.26e-01h  1
 155 -1.3264953e-01 3.79e-01 1.03e+02  -6.0 1.19e+02  -7.9 3.29e-01 9.16e-02h  1
 156 -1.3287093e-01 8.09e-01 7.63e+02  -6.0 5.64e+02  -8.4 5.13e-02 3.74e-02h  1
 157 -1.3297983e-01 7.96e-01 4.23e+03  -6.0 6.94e+02  -8.8 1.10e-01 4.73e-02h  1
 158 -1.3312205e-01 6.97e-01 2.12e+06  -6.0 2.37e+02  -8.4 8.99e-04 1.62e-01h  1
 159 -1.3345400e-01 1.76e+00 1.66e+06  -6.0 8.80e+02  -8.9 6.00e-02 2.20e-01f  1
iter    objective    inf_pr   inf_du lg(mu)  ||d||  lg(rg) alpha_du alpha_pr  ls
 160 -1.3348168e-01 2.61e+00 1.06e+06  -6.0 5.07e+02  -8.5 9.38e-01 3.59e-01h  1
 161 -1.3381171e-01 1.39e+01 1.05e+06  -6.0 2.11e+04  -8.9 3.24e-02 1.49e-02h  1
 162 -1.3399487e-01 1.26e+01 9.53e+05  -6.0 2.26e+03  -9.4 1.10e-01 8.92e-02h  1
 163 -1.3427880e-01 1.16e+01 8.73e+05  -6.0 3.68e+03  -9.9 1.26e-01 8.41e-02h  1
 164 -1.3438109e-01 1.07e+01 8.11e+05  -6.0 2.50e+03  -9.5 3.83e-01 7.04e-02h  1
 165 -1.3459616e-01 1.39e+01 7.78e+05  -6.0 2.43e+04    -  5.05e-03 4.09e-02h  1
 166 -1.3481181e-01 1.19e+01 6.61e+05  -6.0 7.75e+03    -  4.00e-02 1.50e-01h  1
 167 -1.3559039e-01 1.59e+01 6.34e+05  -6.0 2.04e+04    -  6.69e-02 4.10e-02h  1
 168 -1.3586241e-01 1.13e+01 4.34e+05  -6.0 5.43e+03    -  5.08e-02 3.14e-01h  1
 169 -1.3598841e-01 8.52e+00 3.27e+05  -6.0 3.83e+02  -8.1 3.49e-02 2.48e-01h  1
iter    objective    inf_pr   inf_du lg(mu)  ||d||  lg(rg) alpha_du alpha_pr  ls
 170 -1.3608390e-01 7.95e-01 2.21e+05  -6.0 3.36e+01  -7.7 4.45e-03 1.00e+00h  1
 171 -1.3624396e-01 1.18e+00 1.73e+05  -6.0 5.98e+01  -7.3 2.53e-01 2.14e-01h  1
 172 -1.3629126e-01 5.33e-02 7.92e+01  -6.0 3.25e+01  -7.8 9.40e-01 1.00e+00f  1
 173 -1.3651953e-01 1.86e+00 1.04e+02  -6.0 3.98e+02  -7.3 1.15e-02 5.77e-02h  1
 174 -1.3654374e-01 2.72e+00 6.73e+01  -6.0 1.03e+02  -7.8 2.32e-01 7.96e-02h  2
 175 -1.3654302e-01 4.29e+00 7.25e+01  -6.0 1.97e+02  -8.3 8.35e-02 3.38e-02h  2
 176 -1.3666800e-01 7.53e+00 1.55e+02  -6.0 4.60e+01  -7.9 7.89e-01 5.89e-01h  1
 177 -1.3712696e-01 1.21e+01 3.71e+02  -6.0 9.99e+01  -8.4 4.86e-01 1.00e+00h  1
 178 -1.3738137e-01 3.65e+00 1.93e+02  -6.0 1.03e+02  -8.8 6.23e-01 1.00e+00h  1
 179 -1.3753044e-01 7.78e-01 4.46e+02  -6.0 1.51e+02  -9.3 1.00e+00 4.96e-01h  1
iter    objective    inf_pr   inf_du lg(mu)  ||d||  lg(rg) alpha_du alpha_pr  ls
 180 -1.3764038e-01 2.50e+00 2.27e+02  -6.0 9.01e+02  -9.8 1.69e-01 4.39e-01h  1
 181 -1.3772353e-01 3.88e+00 1.78e+02  -6.0 1.73e+03    -  3.29e-01 2.61e-01h  1
 182 -1.3761851e-01 5.46e+01 1.27e+03  -6.0 2.68e+03    -  2.82e-01 1.00e+00H  1
 183 -1.3769798e-01 4.72e+01 1.00e+03  -6.0 1.22e+02  -8.5 1.92e-01 1.36e-01h  1
 184 -1.3777404e-01 2.33e+01 8.83e+01  -6.0 2.94e+02    -  1.00e+00 5.01e-01h  1
 185 -1.3781242e-01 9.88e+00 5.55e+02  -6.0 7.32e+02    -  3.63e-01 4.93e-01h  2
 186 -1.3783829e-01 1.32e+01 3.84e+03  -6.0 9.16e+02    -  3.11e-02 1.00e+00h  1
 187 -1.3780883e-01 1.47e-01 2.58e+01  -6.0 8.02e+01    -  6.84e-01 1.00e+00h  1
 188 -1.3799760e-01 2.74e+01 1.37e+02  -6.0 1.68e+03    -  4.53e-01 1.00e+00H  1
 189 -1.3777013e-01 1.77e-01 7.07e+01  -6.0 7.35e+01  -8.9 1.00e+00 1.00e+00h  1
iter    objective    inf_pr   inf_du lg(mu)  ||d||  lg(rg) alpha_du alpha_pr  ls
 190 -1.3777609e-01 6.43e-01 4.02e+00  -6.0 1.95e+02  -9.4 1.00e+00 1.00e+00h  1
 191 -1.3796148e-01 1.24e+01 1.00e+02  -6.0 9.05e+02  -9.9 4.48e-01 1.00e+00H  1
 192 -1.3802813e-01 1.17e+01 5.03e+01  -6.0 1.02e+03    -  9.13e-01 1.00e+00H  1
 193 -1.3801773e-01 8.68e+00 2.54e+01  -6.0 7.13e+02    -  6.43e-01 1.00e+00h  1
 194 -1.3800603e-01 2.38e-01 1.86e+00  -6.0 9.37e+01  -9.5 1.00e+00 1.00e+00h  1
 195 -1.3800644e-01 2.67e-01 4.26e+01  -6.0 8.67e+02    -  1.00e+00 7.98e-02h  2
 196 -1.3800693e-01 3.17e-01 1.73e-01  -6.0 1.32e+02    -  1.00e+00 1.00e+00h  1
 197 -1.3801214e-01 4.62e-02 4.55e-02  -6.0 5.08e+01    -  1.00e+00 1.00e+00h  1
 198 -1.3801197e-01 1.09e-03 1.58e-04  -6.0 7.79e+00    -  1.00e+00 1.00e+00h  1
 199 -1.3801197e-01 4.58e-10 9.38e-09  -6.0 3.99e-03    -  1.00e+00 1.00e+00h  1
iter    objective    inf_pr   inf_du lg(mu)  ||d||  lg(rg) alpha_du alpha_pr  ls
 200 -1.3855111e-01 6.51e+00 1.17e+01  -7.5 3.73e+03    -  1.71e-01 1.73e-01f  1
 201 -1.3874204e-01 7.36e+00 2.56e+01  -7.5 4.02e+03    -  3.42e-02 7.08e-02h  1
 202 -1.3912764e-01 1.01e+01 2.12e+01  -7.5 2.55e+03    -  3.45e-01 2.32e-01h  1
 203 -1.3929655e-01 1.07e+01 1.86e+01  -7.5 2.43e+03    -  1.61e-01 1.81e-01h  1
 204 -1.3930294e-01 1.06e+01 7.98e+01  -7.5 1.50e+02  -9.0 5.48e-01 1.20e-02h  1
 205 -1.3981559e-01 3.20e+01 3.46e+01  -7.5 2.70e+03    -  7.96e-03 6.03e-01h  1
 206 -1.3987605e-01 2.59e+01 2.77e+01  -7.5 2.07e+03    -  1.98e-01 1.94e-01h  1
 207 -1.3989497e-01 2.35e+01 2.18e+01  -7.5 1.45e+03    -  1.77e-01 9.10e-02h  1
 208 -1.3994649e-01 1.65e+01 1.46e+01  -7.5 1.06e+03    -  4.39e-01 3.02e-01h  1
 209 -1.4002683e-01 1.53e+00 2.21e+01  -7.5 5.37e+01  -9.5 3.88e-01 9.09e-01h  1
iter    objective    inf_pr   inf_du lg(mu)  ||d||  lg(rg) alpha_du alpha_pr  ls
 210 -1.4006271e-01 1.30e+00 2.52e+01  -7.5 7.18e+02    -  2.06e-01 2.62e-01h  1
 211 -1.4017586e-01 4.29e+00 1.64e+02  -7.5 5.80e+02    -  2.03e-01 1.00e+00h  1
 212 -1.4019938e-01 3.34e+00 1.57e+01  -7.5 3.72e+02    -  4.35e-01 2.33e-01h  1
 213 -1.4029834e-01 8.27e-01 2.31e+02  -7.5 1.90e+02    -  6.67e-01 1.00e+00h  1
 214 -1.4031149e-01 7.32e-01 5.97e+02  -7.5 2.20e+02    -  4.42e-01 1.16e-01h  1
 215 -1.4034018e-01 5.51e-01 9.30e+02  -7.5 6.06e+02    -  5.25e-01 2.59e-01h  1
 216 -1.4037504e-01 3.85e+00 1.39e+02  -7.5 1.67e+03    -  1.09e-01 3.12e-01h  1
 217 -1.4044091e-01 4.63e+00 1.66e+03  -7.5 9.12e+02    -  1.95e-01 5.39e-01h  1
 218 -1.4044229e-01 5.52e+00 1.86e+03  -7.5 3.68e+04    -  1.64e-04 9.21e-03h  1
 219 -1.4044363e-01 5.49e+00 3.59e+03  -7.5 5.35e+03    -  3.09e-01 7.67e-03h  1
iter    objective    inf_pr   inf_du lg(mu)  ||d||  lg(rg) alpha_du alpha_pr  ls
 220 -1.4044469e-01 5.46e+00 3.78e+03  -7.5 1.09e+04    -  7.10e-03 6.46e-03h  1
 221 -1.4047776e-01 3.02e+01 5.19e+03  -7.5 1.56e+03    -  1.07e-01 1.00e+00h  1
 222 -1.4050673e-01 4.21e+01 1.75e+03  -7.5 2.42e+03    -  2.58e-01 6.24e-01h  1
 223 -1.4051909e-01 4.25e+01 1.52e+03  -7.5 4.56e+03    -  2.45e-01 1.53e-01h  1
 224 -1.4054972e-01 6.19e+01 5.54e+02  -7.5 2.75e+03    -  5.10e-02 6.50e-01h  1
 225 -1.4054523e-01 5.48e+01 5.51e+02  -7.5 2.02e+03    -  7.10e-02 1.32e-01h  1
 226 -1.4055884e-01 5.24e+01 4.28e+02  -7.5 3.37e+03    -  4.56e-02 2.54e-01h  1
 227 -1.4058538e-01 5.85e+01 9.54e+01  -7.5 1.88e+03    -  8.04e-01 1.00e+00h  1
 228 -1.4059508e-01 4.36e+01 6.31e+01  -7.5 1.75e+03    -  2.14e-01 4.45e-01h  1
 229 -1.4061559e-01 5.13e+01 1.29e+02  -7.5 1.65e+03    -  3.26e-01 1.00e+00h  1
iter    objective    inf_pr   inf_du lg(mu)  ||d||  lg(rg) alpha_du alpha_pr  ls
 230 -1.4061726e-01 4.71e+01 1.19e+02  -7.5 1.41e+03    -  3.24e-02 9.03e-02h  1
 231 -1.4060485e-01 1.59e+01 1.57e+03  -7.5 9.39e+02    -  1.84e-02 1.00e+00f  1
 232 -1.4060583e-01 2.17e+00 2.06e+02  -7.5 6.09e+01    -  1.00e+00 8.68e-01h  1
 233 -1.4061523e-01 1.16e+01 3.83e+01  -7.5 7.29e+02    -  1.04e-01 1.00e+00h  1
 234 -1.4061935e-01 1.16e+01 4.46e+01  -7.5 1.01e+04    -  2.84e-01 3.08e-02h  1
 235 -1.4061967e-01 2.31e-02 2.30e+00  -7.5 3.14e+01    -  9.35e-01 1.00e+00h  1
 236 -1.4062001e-01 1.47e-02 2.59e-01  -7.5 2.71e+01    -  1.00e+00 1.00e+00h  1
 237 -1.4062001e-01 1.13e-06 2.89e-05  -7.5 2.52e-01    -  1.00e+00 1.00e+00h  1
 238 -1.4062001e-01 4.09e-08 2.72e-07  -7.5 4.52e-02    -  1.00e+00 1.00e+00h  1
 239 -1.4062327e-01 9.23e-02 2.40e+00  -9.0 2.59e+02    -  2.88e-01 3.04e-01h  1
iter    objective    inf_pr   inf_du lg(mu)  ||d||  lg(rg) alpha_du alpha_pr  ls
 240 -1.4063018e-01 2.10e+01 7.95e+01  -9.0 1.17e+05    -  2.17e-02 8.78e-03h  1
 241 -1.4063789e-01 2.77e+01 1.19e+02  -9.0 3.62e+03    -  1.86e-01 2.32e-01h  1
 242 -1.4064254e-01 2.74e+01 1.26e+02  -9.0 4.34e+03    -  2.91e-01 1.62e-01h  1
 243 -1.4064966e-01 4.42e+01 1.33e+02  -9.0 3.43e+03    -  3.20e-01 3.66e-01h  1
 244 -1.4065356e-01 4.07e+01 2.54e+01  -9.0 1.55e+03    -  1.00e-02 8.19e-01h  1
 245 -1.4065068e-01 1.55e-01 7.70e+00  -9.0 1.02e+02    -  4.01e-02 1.00e+00h  1
 246 -1.4065131e-01 8.47e-02 7.37e-01  -9.0 6.42e+01    -  1.00e+00 1.00e+00h  1
 247 -1.4065129e-01 2.12e-02 8.98e-02  -9.0 3.22e+01    -  1.00e+00 1.00e+00h  1
 248 -1.4065129e-01 6.76e-08 1.75e-05  -9.0 3.78e-02    -  1.00e+00 1.00e+00h  1
 249 -1.4065129e-01 2.83e-10 2.61e-12  -9.0 2.82e-05    -  1.00e+00 1.00e+00h  1

Number of Iterations....: 249

                                   (scaled)                 (unscaled)
Objective...............:  -1.4065129089321360e-01   -1.4065129089321360e-01
Dual infeasibility......:   2.6052215940097767e-12    2.6052215940097767e-12
Constraint violation....:   2.8297292840092497e-10    2.8297292840092497e-10
Complementarity.........:   9.0909098744035605e-10    9.0909098744035605e-10
Overall NLP error.......:   9.0909098744035605e-10    9.0909098744035605e-10


Number of objective function evaluations             = 354
Number of objective gradient evaluations             = 246
Number of equality constraint evaluations            = 356
Number of inequality constraint evaluations          = 355
Number of equality constraint Jacobian evaluations   = 253
Number of inequality constraint Jacobian evaluations = 253
Number of Lagrangian Hessian evaluations             = 249
Total CPU secs in IPOPT (w/o function evaluations)   =    131.447
Total CPU secs in NLP function evaluations           =      4.128

EXIT: Optimal Solution Found.
